Gurobi Optimizer version 9.1.2 build v9.1.2rc0 (linux64)
Thread count: 36 physical cores, 72 logical processors, using up to 32 threads
Optimize a model with 12 rows, 57 columns and 590 nonzeros
Model fingerprint: 0xf32eec78
Model has 47 quadratic constraints
Coefficient statistics:
  Matrix range     [2e-05, 3e+00]
  QMatrix range    [1e+00, 1e+00]
  QLMatrix range   [1e+00, 1e+00]
  Objective range  [8e-03, 7e-01]
  Bounds range     [1e+00, 1e+00]
  RHS range        [1e+00, 1e+00]
Presolve removed 9 rows and 0 columns

Continuous model is non-convex -- solving as a MIP.

Presolve removed 9 rows and 0 columns
Presolve time: 0.00s
Presolved: 189 rows, 57 columns, 443 nonzeros
Presolved model has 47 bilinear constraint(s)
Variable types: 57 continuous, 0 integer (0 binary)

Root relaxation: objective -1.743721e+00, 44 iterations, 0.00 seconds

    Nodes    |    Current Node    |     Objective Bounds      |     Work
 Expl Unexpl |  Obj  Depth IntInf | Incumbent    BestBd   Gap | It/Node Time

     0     0   -1.74372    0   38          -   -1.74372      -     -    0s
H    0     0                       0.6147548   -1.74372   384%     -    0s
     0     0   -1.64739    0    1    0.61475   -1.64739   368%     -    0s
H    0     0                      -1.6450460   -1.64739  0.14%     -    0s
     0     0     cutoff    0        -1.64505   -1.64505  0.00%     -    0s

Cutting planes:
  RLT: 25
  BQP: 3

Explored 1 nodes (76 simplex iterations) in 0.01 seconds
Thread count was 32 (of 72 available processors)

Solution count 2: -1.64505 0.614755 
No other solutions better than -1.64505

Optimal solution found (tolerance 1.00e-04)
Best objective -1.645045978473e+00, best bound -1.645045978473e+00, gap 0.0000%

User-callback calls 78, time in user-callback 0.00 sec
Gurobi Optimizer version 9.1.2 build v9.1.2rc0 (linux64)
Thread count: 36 physical cores, 72 logical processors, using up to 32 threads
Optimize a model with 60 rows, 312 columns and 16100 nonzeros
Model fingerprint: 0xc4ef71be
Model has 262 quadratic constraints
Coefficient statistics:
  Matrix range     [4e-07, 7e+00]
  QMatrix range    [1e+00, 1e+00]
  QLMatrix range   [1e+00, 1e+00]
  Objective range  [1e-03, 9e-01]
  Bounds range     [1e+00, 1e+00]
  RHS range        [1e+00, 1e+00]
Presolve removed 16 rows and 0 columns

Continuous model is non-convex -- solving as a MIP.

Presolve removed 16 rows and 0 columns
Presolve time: 0.01s
Presolved: 1080 rows, 312 columns, 13136 nonzeros
Presolved model has 262 bilinear constraint(s)
Variable types: 312 continuous, 0 integer (0 binary)

Root relaxation: objective -1.467149e+01, 325 iterations, 0.02 seconds

    Nodes    |    Current Node    |     Objective Bounds      |     Work
 Expl Unexpl |  Obj  Depth IntInf | Incumbent    BestBd   Gap | It/Node Time

     0     0  -14.67149    0   94          -  -14.67149      -     -    0s
H    0     0                     -12.3801127  -14.67149  18.5%     -    0s
     0     0  -14.24059    0   66  -12.38011  -14.24059  15.0%     -    0s
H    0     0                     -13.1118053  -14.24059  8.61%     -    0s
     0     0  -14.21715    0   54  -13.11181  -14.21715  8.43%     -    0s
     0     0  -14.15246    0   45  -13.11181  -14.15246  7.94%     -    0s
     0     0  -14.15028    0   46  -13.11181  -14.15028  7.92%     -    0s
     0     0  -14.13396    0   67  -13.11181  -14.13396  7.80%     -    0s
H    0     0                     -13.2604484  -14.13396  6.59%     -    0s
     0     0  -14.13297    0   79  -13.26045  -14.13297  6.58%     -    0s
     0     0  -14.12546    0   67  -13.26045  -14.12546  6.52%     -    0s
     0     0  -14.12382    0   67  -13.26045  -14.12382  6.51%     -    0s
     0     0  -14.12133    0   67  -13.26045  -14.12133  6.49%     -    0s
     0     0  -14.12126    0   73  -13.26045  -14.12126  6.49%     -    0s
     0     0  -14.11953    0   73  -13.26045  -14.11953  6.48%     -    0s
     0     0  -14.11799    0   67  -13.26045  -14.11799  6.47%     -    0s
     0     0  -14.11788    0   67  -13.26045  -14.11788  6.47%     -    0s
H    0     0                     -13.3551480  -14.11788  5.71%     -    0s
     0     0  -14.11788    0   67  -13.35515  -14.11788  5.71%     -    0s
     0     0  -14.11788    0   67  -13.35515  -14.11788  5.71%     -    0s
     0     2  -14.11788    0   67  -13.35515  -14.11788  5.71%     -    0s
* 1210  1010              42     -13.3553073  -13.90166  4.09%  39.8    1s
* 1615  1384              60     -13.4644748  -13.90166  3.25%  34.9    1s
* 1765  1418              62     -13.5035298  -13.90166  2.95%  33.8    1s
* 1792  1476              44     -13.6995267  -13.88507  1.35%  33.5    1s
* 1793  1476              45     -13.6995433  -13.88507  1.35%  33.5    1s
* 2431  1719              54     -13.7030039  -13.82427  0.88%  32.0    1s
* 2432  1719              54     -13.7030041  -13.82427  0.88%  31.9    1s
* 2710  1853              61     -13.7107701  -13.82427  0.83%  30.5    1s
* 2711  1853              61     -13.7107984  -13.82427  0.83%  30.5    1s
* 2890  1790              62     -13.7108507  -13.82427  0.83%  29.6    1s
* 2895  1790              65     -13.7108728  -13.82427  0.83%  29.5    1s
* 3048  1835              61     -13.7119825  -13.82427  0.82%  28.8    2s
* 3105  1835              53     -13.7256866  -13.82427  0.72%  28.5    2s
* 3762  1840              59     -13.7271407  -13.77486  0.35%  26.1    2s
* 3922  1831              54     -13.7284019  -13.76785  0.29%  25.7    2s
* 4236  1855              45     -13.7294703  -13.76082  0.23%  24.7    2s
* 4403  1855              44     -13.7317216  -13.76082  0.21%  24.4    2s
* 4730  1888              38     -13.7317396  -13.76006  0.21%  23.6    2s
* 4731  1888              38     -13.7317401  -13.76006  0.21%  23.6    2s
* 4757  1888              38     -13.7336744  -13.76006  0.19%  23.5    2s
* 5315  1942              38     -13.7337156  -13.76006  0.19%  22.3    2s
* 5320  1942              38     -13.7337487  -13.76006  0.19%  22.3    2s
* 5364  1942              46     -13.7340095  -13.76006  0.19%  22.1    2s
* 5463  1942              54     -13.7361712  -13.76006  0.17%  22.0    2s
* 5698  1910              64     -13.7369151  -13.75808  0.15%  21.5    2s
* 5835  1910              52     -13.7374093  -13.75808  0.15%  21.2    2s
* 7633   396              49     -13.7415641  -13.75808  0.12%  23.1    3s
* 8092   374              61     -13.7422635  -13.75808  0.12%  22.4    3s
* 8336   454              63     -13.7427569  -13.75808  0.11%  22.0    3s
* 8639   516              64     -13.7428047  -13.75808  0.11%  21.5    3s
* 8700   516              62     -13.7428209  -13.75808  0.11%  21.4    3s
* 8840   552              55     -13.7428588  -13.75808  0.11%  21.2    3s
* 8963   552              49     -13.7434594  -13.75808  0.11%  21.0    3s
* 9223   467              53     -13.7435004  -13.75808  0.11%  20.5    3s
* 9323   500              53     -13.7435036  -13.75808  0.11%  20.4    4s
* 9369   500              52     -13.7436631  -13.75808  0.10%  20.3    4s
* 9444   563              56     -13.7442480  -13.75808  0.10%  20.2    4s
* 9447   563              56     -13.7442544  -13.75808  0.10%  20.2    4s
* 9629   601              56     -13.7442599  -13.75808  0.10%  20.0    4s
* 9632   601              56     -13.7443371  -13.75808  0.10%  20.0    4s
* 9742   601              49     -13.7454675  -13.75808  0.09%  19.8    4s
* 9823   433              54     -13.7454992  -13.75808  0.09%  19.7    4s
* 9824   433              54     -13.7455018  -13.75808  0.09%  19.7    4s
* 9845   433              51     -13.7455024  -13.75808  0.09%  19.7    4s
*10052   433              51     -13.7455966  -13.75808  0.09%  19.4    4s
*10053   433              51     -13.7456059  -13.75808  0.09%  19.4    4s
*10061   433              51     -13.7457002  -13.75808  0.09%  19.4    4s
*10139   433              50     -13.7457624  -13.75808  0.09%  19.2    4s
*10286   419              54     -13.7458154  -13.75808  0.09%  19.1    4s
*10287   419              54     -13.7458162  -13.75808  0.09%  19.1    4s
*10292   419              54     -13.7458706  -13.75808  0.09%  19.1    4s
*10294   419              55     -13.7458802  -13.75808  0.09%  19.1    4s
*10505   423              51     -13.7459196  -13.75808  0.09%  18.8    4s
*10610   423              56     -13.7459738  -13.75808  0.09%  18.7    4s
*10697   501              61     -13.7462499  -13.75808  0.09%  18.6    4s
*10916   438              65     -13.7462937  -13.75642  0.07%  18.4    4s
*10918   438              66     -13.7462955  -13.75642  0.07%  18.4    4s
*10919   438              66     -13.7462955  -13.75642  0.07%  18.4    4s
*11254   455              62     -13.7463123  -13.75329  0.05%  18.2    4s
*11487   451              67     -13.7463139  -13.75329  0.05%  17.9    4s
*11574   451              66     -13.7463295  -13.75329  0.05%  17.8    4s
*11575   451              66     -13.7463296  -13.75329  0.05%  17.8    4s
*11650   451              66     -13.7463338  -13.75329  0.05%  17.7    4s
*11651   451              66     -13.7463390  -13.75329  0.05%  17.7    4s
*11863   413              61     -13.7463639  -13.75237  0.04%  17.5    4s
*11964   413              55     -13.7463669  -13.75237  0.04%  17.3    4s
*12397   382              57     -13.7463769  -13.74977  0.02%  16.9    4s
*12415   382              59     -13.7463965  -13.74977  0.02%  16.9    4s
*12416   382              59     -13.7463967  -13.74977  0.02%  16.9    4s
*13239   259              62     -13.7463991  -13.74740  0.01%  16.1    4s

Explored 13289 nodes (214536 simplex iterations) in 4.74 seconds
Thread count was 32 (of 72 available processors)

Solution count 10: -13.7464 -13.7464 -13.7464 ... -13.7463

Optimal solution found (tolerance 1.00e-04)
Best objective -1.374639906001e+01, best bound -1.374739663391e+01, gap 0.0073%

User-callback calls 27448, time in user-callback 0.01 sec



objective value: -13.746399060006816
objective bound: -13.747396633906956
x_opt: [1.0, 1.0, 0.11641409418074182, 0.1395548732931147, 0.0, 0.0, 1.0, 0.0, 0.0, 0.0, 1.0, 0.0, 1.0, 1.0, 0.0, 1.0, 0.0, 1.0, 0.0, 0.0, 0.5708672298175639, 0.755996679297775, 0.0, 0.7463596991009991, 0.0, 0.5990741715404468, 0.0, 1.0, 0.0, 0.0, 1.0, 0.7497882457176962, 0.0, 0.32149601729775473, 1.0, 1.0, 0.16181683747453673, 1.0, 0.0, 1.0, 1.0, 0.0, 1.0, 0.007342440690562078, 0.0, 0.0, 0.7654914182477314, 0.004258323878418708, 1.0, 0.0005170737083325347]
GUROBI solution time: 4.73678994178772




